S = 5;
start = [|0,0,0,0,14,0,0,24,0,0,0,0,0,5,0,0,0,8,0,0,3,0,0,16,13|
17,12,25,4,0,0,0,0,0,0,0,0,0,0,1,24,5,0,0,16,0,0,0,0,0|
0,0,0,13,0,0,6,0,0,8,0,3,0,2,0,0,0,0,22,0,0,0,0,19,0|
0,0,0,0,0,0,0,3,1,0,17,0,0,13,0,0,0,0,0,0,0,0,0,0,18|
0,2,0,0,0,0,10,13,0,0,0,0,25,0,0,0,0,0,0,0,0,0,0,0,0|
4,14,0,0,0,0,0,16,24,0,0,2,18,0,0,0,0,19,0,0,0,0,13,0,1|
0,0,0,17,0,0,0,0,0,0,0,0,0,0,0,0,0,0,0,0,0,5,0,0,0|
0,0,0,0,23,0,0,0,22,0,0,0,0,0,0,0,25,10,0,13,0,0,0,0,0|
0,0,0,0,0,0,0,0,0,0,0,0,0,0,0,0,8,0,0,0,0,0,0,0,0|
0,0,0,0,0,11,13,9,0,0,0,5,0,0,22,21,1,0,0,0,0,0,0,0,6|
0,0,0,5,0,0,0,0,12,0,21,16,0,0,0,11,0,20,0,15,23,0,3,0,0|
0,0,0,0,0,18,0,0,0,0,9,0,0,0,5,0,0,0,0,0,6,0,0,13,0|
0,0,0,0,0,0,0,0,0,0,0,19,4,20,0,0,0,0,3,0,0,0,0,0,0|
18,23,0,0,9,0,0,0,4,0,0,11,0,0,17,12,0,6,0,5,0,2,0,0,7|
0,0,17,0,0,0,0,0,5,0,0,0,0,0,0,0,0,0,0,0,24,0,0,20,0|
0,0,0,0,16,0,4,7,0,0,0,8,0,0,10,0,0,0,0,0,0,18,0,0,0|
0,0,0,0,1,21,0,0,0,0,13,0,0,25,0,0,0,0,18,0,0,11,0,0,0|
0,0,9,0,11,14,0,0,0,0,0,0,22,0,0,0,0,21,0,12,0,0,19,0,0|
0,5,0,0,0,0,0,17,0,0,18,0,11,0,0,0,0,0,0,0,0,0,0,0,23|
0,0,0,0,21,0,15,0,0,0,7,0,0,16,0,1,24,0,0,25,12,0,0,0,0|
5,16,0,0,24,2,11,0,0,0,0,0,10,23,0,0,0,0,0,0,0,0,0,6,0|
0,6,0,0,0,0,0,0,0,1,0,0,0,0,0,0,0,0,0,19,0,13,0,0,0|
0,13,0,0,0,0,0,0,0,10,6,0,0,0,0,0,0,0,5,0,0,0,0,0,0|
0,0,14,0,0,0,0,18,23,0,0,0,0,0,0,0,12,0,0,0,17,0,0,0,0|
0,0,0,0,0,0,0,0,0,0,0,22,0,0,11,17,0,0,0,14,0,0,23,0,12|];